certificates/rado_a10_c18_N21.cnf
c Rad2 upper bound instance: x1 + 10*x2 - x3 = 18, interval [1,21]
p cnf 21 82
1 2 3 0
-1 -2 -3 0
1 3 13 0
-1 -3 -13 0
2 4 0
-2 -4 0
2 3 14 0
-2 -3 -14 0
2 3 5 0
-2 -3 -5 0
3 15 0
-3 -15 0
2 4 6 0
-2 -4 -6 0
3 4 16 0
-3 -4 -16 0
2 5 7 0
-2 -5 -7 0
3 5 17 0
-3 -5 -17 0
2 6 8 0
-2 -6 -8 0
3 6 18 0
-3 -6 -18 0
2 7 9 0
-2 -7 -9 0
3 7 19 0
-3 -7 -19 0
2 8 10 0
-2 -8 -10 0
3 8 20 0
-3 -8 -20 0
1 9 0
-1 -9 0
2 9 11 0
-2 -9 -11 0
3 9 21 0
-3 -9 -21 0
1 2 10 0
-1 -2 -10 0
2 10 12 0
-2 -10 -12 0
1 3 11 0
-1 -3 -11 0
2 11 13 0
-2 -11 -13 0
1 4 12 0
-1 -4 -12 0
2 12 14 0
-2 -12 -14 0
1 5 13 0
-1 -5 -13 0
2 13 15 0
-2 -13 -15 0
1 6 14 0
-1 -6 -14 0
2 14 16 0
-2 -14 -16 0
1 7 15 0
-1 -7 -15 0
2 15 17 0
-2 -15 -17 0
1 8 16 0
-1 -8 -16 0
2 16 18 0
-2 -16 -18 0
1 9 17 0
-1 -9 -17 0
2 17 19 0
-2 -17 -19 0
1 10 18 0
-1 -10 -18 0
2 18 20 0
-2 -18 -20 0
1 11 19 0
-1 -11 -19 0
2 19 21 0
-2 -19 -21 0
1 12 20 0
-1 -12 -20 0
1 13 21 0
-1 -13 -21 0
