certificates/rado_a10_c18_N21.drat
-16 2 0
8 -18 2 0
3 2 -19 0
-19 -20 -21 0
2 8 0
d -18 2 8 0
16 8 0
-3 -2 -21 0
-2 19 -21 0
-20 -21 0
d -19 -20 -21 0
3 2 0
d 3 -19 2 0
2 -21 0
-2 -21 0
d -19 -2 -21 0
d -2 19 -21 0
-21 0
3 19 -2 0
19 -2 0
d 3 19 -2 0
-3 -2 0
d -3 -2 -21 0
-2 0
4 0
19 0
-16 0
8 0
3 0
18 0
14 0
-20 0
-15 0
-7 0
-6 0
17 0
13 0
9 0
1 0
5 0
0
